21° run output:
{
    "Function": "ClusterA500.tsp",
    "Problem dimension": [
        39,
        499,
        89,
        87,
        423,
        142,
        465,
        62,
        327,
        224,
        169,
        478,
        447,
        263,
        366,
        51,
        344,
        308,
        202,
        311,
        225,
        383,
        46,
        93,
        219,
        495,
        185,
        267,
        203,
        475,
        245,
        25,
        256,
        215,
        54,
        107,
        448,
        144,
        220,
        56,
        159,
        64,
        194,
        364,
        108,
        71,
        75,
        237,
        0,
        457,
        76,
        234,
        444,
        461,
        264,
        292,
        361,
        208,
        371,
        176,
        417,
        372,
        468,
        390,
        242,
        317,
        399,
        48,
        181,
        359,
        153,
        328,
        171,
        23,
        127,
        157,
        143,
        201,
        31,
        493,
        281,
        255,
        217,
        439,
        412,
        189,
        174,
        199,
        55,
        491,
        299,
        59,
        307,
        236,
        416,
        213,
        472,
        330,
        456,
        249,
        177,
        260,
        322,
        53,
        458,
        405,
        45,
        450,
        356,
        35,
        24,
        379,
        193,
        168,
        257,
        319,
        445,
        200,
        47,
        425,
        337,
        329,
        429,
        413,
        230,
        190,
        357,
        188,
        300,
        426,
        77,
        336,
        5,
        353,
        476,
        63,
        11,
        43,
        67,
        480,
        12,
        362,
        398,
        373,
        304,
        163,
        486,
        489,
        352,
        141,
        139,
        290,
        345,
        285,
        131,
        179,
        350,
        277,
        280,
        248,
        409,
        348,
        10,
        325,
        377,
        120,
        335,
        102,
        172,
        354,
        321,
        492,
        30,
        84,
        241,
        380,
        410,
        400,
        411,
        497,
        389,
        227,
        191,
        20,
        33,
        228,
        122,
        375,
        114,
        50,
        376,
        118,
        442,
        211,
        170,
        136,
        262,
        428,
        104,
        470,
        180,
        106,
        347,
        460,
        2,
        333,
        272,
        253,
        68,
        49,
        487,
        252,
        90,
        440,
        151,
        4,
        274,
        297,
        112,
        452,
        435,
        214,
        8,
        268,
        451,
        103,
        26,
        406,
        36,
        115,
        302,
        73,
        490,
        28,
        323,
        37,
        481,
        97,
        385,
        19,
        61,
        135,
        338,
        32,
        116,
        310,
        145,
        382,
        156,
        91,
        392,
        391,
        221,
        95,
        313,
        331,
        284,
        126,
        94,
        81,
        128,
        16,
        485,
        14,
        147,
        34,
        378,
        240,
        160,
        250,
        247,
        332,
        287,
        98,
        334,
        459,
        83,
        130,
        233,
        173,
        316,
        166,
        254,
        270,
        498,
        149,
        182,
        482,
        370,
        124,
        436,
        437,
        484,
        178,
        38,
        259,
        276,
        477,
        430,
        381,
        367,
        419,
        273,
        13,
        207,
        418,
        402,
        278,
        231,
        183,
        339,
        121,
        129,
        384,
        196,
        161,
        243,
        388,
        301,
        133,
        15,
        86,
        283,
        21,
        269,
        212,
        197,
        355,
        293,
        80,
        305,
        314,
        175,
        415,
        40,
        394,
        117,
        205,
        134,
        148,
        454,
        351,
        78,
        291,
        396,
        443,
        441,
        123,
        70,
        29,
        192,
        395,
        244,
        195,
        99,
        198,
        82,
        146,
        251,
        132,
        298,
        449,
        471,
        386,
        374,
        74,
        464,
        167,
        186,
        403,
        282,
        473,
        164,
        154,
        226,
        346,
        387,
        1,
        275,
        342,
        44,
        209,
        66,
        424,
        105,
        420,
        9,
        271,
        432,
        295,
        57,
        488,
        6,
        265,
        125,
        393,
        100,
        462,
        408,
        258,
        113,
        463,
        165,
        303,
        294,
        109,
        474,
        239,
        138,
        18,
        210,
        363,
        306,
        315,
        96,
        152,
        216,
        288,
        469,
        483,
        111,
        494,
        360,
        453,
        232,
        27,
        158,
        88,
        261,
        184,
        358,
        279,
        427,
        326,
        341,
        455,
        101,
        206,
        340,
        312,
        42,
        404,
        137,
        266,
        17,
        343,
        446,
        466,
        162,
        438,
        365,
        140,
        69,
        349,
        119,
        422,
        150,
        218,
        7,
        421,
        110,
        324,
        407,
        309,
        434,
        72,
        235,
        52,
        229,
        414,
        431,
        289,
        238,
        320,
        79,
        397,
        246,
        222,
        467,
        318,
        22,
        433,
        369,
        401,
        41,
        65,
        58,
        223,
        3,
        286,
        496,
        155,
        187,
        368,
        85,
        479,
        204,
        92,
        60,
        296
    ],
    "Global Optimum": 0,
    "Algorithm": "Genetic algorithm",
    "Parameters": {
        "population": 30,
        "offspring": 30,
        "mutation probability": 0.002,
        "crossover probability": 0.9
    },
    "Fitness": 669530,
    "Solution": [
        39,
        499,
        89,
        87,
        423,
        142,
        465,
        62,
        327,
        224,
        169,
        478,
        447,
        263,
        366,
        51,
        344,
        308,
        202,
        311,
        225,
        383,
        46,
        93,
        219,
        495,
        185,
        267,
        203,
        475,
        245,
        25,
        256,
        215,
        54,
        107,
        448,
        144,
        220,
        56,
        159,
        64,
        194,
        364,
        108,
        71,
        75,
        237,
        0,
        457,
        76,
        234,
        444,
        461,
        264,
        292,
        361,
        208,
        371,
        176,
        417,
        372,
        468,
        390,
        242,
        317,
        399,
        48,
        181,
        359,
        153,
        328,
        171,
        23,
        127,
        157,
        143,
        201,
        31,
        493,
        281,
        255,
        217,
        439,
        412,
        189,
        174,
        199,
        55,
        491,
        299,
        59,
        307,
        236,
        416,
        213,
        472,
        330,
        456,
        249,
        177,
        260,
        322,
        53,
        458,
        405,
        45,
        450,
        356,
        35,
        24,
        379,
        193,
        168,
        257,
        319,
        445,
        200,
        47,
        425,
        337,
        329,
        429,
        413,
        230,
        190,
        357,
        188,
        300,
        426,
        77,
        336,
        5,
        353,
        476,
        63,
        11,
        43,
        67,
        480,
        12,
        362,
        398,
        373,
        304,
        163,
        486,
        489,
        352,
        141,
        139,
        290,
        345,
        285,
        131,
        179,
        350,
        277,
        280,
        248,
        409,
        348,
        10,
        325,
        377,
        120,
        335,
        102,
        172,
        354,
        321,
        492,
        30,
        84,
        241,
        380,
        410,
        400,
        411,
        497,
        389,
        227,
        191,
        20,
        33,
        228,
        122,
        375,
        114,
        50,
        376,
        118,
        442,
        211,
        170,
        136,
        262,
        428,
        104,
        470,
        180,
        106,
        347,
        460,
        2,
        333,
        272,
        253,
        68,
        49,
        487,
        252,
        90,
        440,
        151,
        4,
        274,
        297,
        112,
        452,
        435,
        214,
        8,
        268,
        451,
        103,
        26,
        406,
        36,
        115,
        302,
        73,
        490,
        28,
        323,
        37,
        481,
        97,
        385,
        19,
        61,
        135,
        338,
        32,
        116,
        310,
        145,
        382,
        156,
        91,
        392,
        391,
        221,
        95,
        313,
        331,
        284,
        126,
        94,
        81,
        128,
        16,
        485,
        14,
        147,
        34,
        378,
        240,
        160,
        250,
        247,
        332,
        287,
        98,
        334,
        459,
        83,
        130,
        233,
        173,
        316,
        166,
        254,
        270,
        498,
        149,
        182,
        482,
        370,
        124,
        436,
        437,
        484,
        178,
        38,
        259,
        276,
        477,
        430,
        381,
        367,
        419,
        273,
        13,
        207,
        418,
        402,
        278,
        231,
        183,
        339,
        121,
        129,
        384,
        196,
        161,
        243,
        388,
        301,
        133,
        15,
        86,
        283,
        21,
        269,
        212,
        197,
        355,
        293,
        80,
        305,
        314,
        175,
        415,
        40,
        394,
        117,
        205,
        134,
        148,
        454,
        351,
        78,
        291,
        396,
        443,
        441,
        123,
        70,
        29,
        192,
        395,
        244,
        195,
        99,
        198,
        82,
        146,
        251,
        132,
        298,
        449,
        471,
        386,
        374,
        74,
        464,
        167,
        186,
        403,
        282,
        473,
        164,
        154,
        226,
        346,
        387,
        1,
        275,
        342,
        44,
        209,
        66,
        424,
        105,
        420,
        9,
        271,
        432,
        295,
        57,
        488,
        6,
        265,
        125,
        393,
        100,
        462,
        408,
        258,
        113,
        463,
        165,
        303,
        294,
        109,
        474,
        239,
        138,
        18,
        210,
        363,
        306,
        315,
        96,
        152,
        216,
        288,
        469,
        483,
        111,
        494,
        360,
        453,
        232,
        27,
        158,
        88,
        261,
        184,
        358,
        279,
        427,
        326,
        341,
        455,
        101,
        206,
        340,
        312,
        42,
        404,
        137,
        266,
        17,
        343,
        446,
        466,
        162,
        438,
        365,
        140,
        69,
        349,
        119,
        422,
        150,
        218,
        7,
        421,
        110,
        324,
        407,
        309,
        434,
        72,
        235,
        52,
        229,
        414,
        431,
        289,
        238,
        320,
        79,
        397,
        246,
        222,
        467,
        318,
        22,
        433,
        369,
        401,
        41,
        65,
        58,
        223,
        3,
        286,
        496,
        155,
        187,
        368,
        85,
        479,
        204,
        92,
        60,
        296
    ],
    "Nb of functions evaluations": 200010,
    "Computational time in seconds": 935.3867774009705,
    "Stopping criterion in evaluations": 200000
}